<?xml version = "1.0" encoding="UTF-8" standalone="yes"?>
<CPLEXSolution version="1.2">
 <header
   problemName="IloCplex"
   solutionName="p0"
   solutionIndex="-1"
   objectiveValue="0"
   solutionTypeValue="3"
   solutionTypeString="primal"
   solutionStatusValue="127"
   solutionStatusString="integer feasible solution"
   solutionMethodString="mip"
   primalFeasible="0"
   dualFeasible="0"
   writeLevel="3"/>
 <quality
   epInt="1.0000000000000001e-05"
   epRHS="9.9999999999999995e-07"
   maxIntInfeas="0"
   maxPrimalInfeas="0"
   maxX="1"
   maxSlack="1"/>
 <variables>
  <variable name="x0_21" index="131" value="1"/>
  <variable name="x1_42" index="252" value="1"/>
  <variable name="x2_79" index="389" value="1"/>
  <variable name="x3_96" index="506" value="1"/>
  <variable name="x4_77" index="587" value="1"/>
  <variable name="x5_0" index="610" value="1"/>
  <variable name="x6_19" index="729" value="1"/>
  <variable name="x7_73" index="883" value="1"/>
  <variable name="x8_43" index="953" value="1"/>
  <variable name="x9_48" index="1058" value="1"/>
  <variable name="x10_75" index="1185" value="1"/>
  <variable name="x11_78" index="1288" value="1"/>
  <variable name="x12_51" index="1361" value="1"/>
  <variable name="x13_29" index="1439" value="1"/>
  <variable name="x14_16" index="1526" value="1"/>
  <variable name="x15_90" index="1700" value="1"/>
  <variable name="x16_4" index="1714" value="1"/>
  <variable name="x17_34" index="1844" value="1"/>
  <variable name="x18_6" index="1916" value="1"/>
  <variable name="x19_72" index="2082" value="1"/>
  <variable name="x20_52" index="2162" value="1"/>
  <variable name="x21_17" index="2227" value="1"/>
  <variable name="x22_38" index="2348" value="1"/>
  <variable name="x23_94" index="2504" value="1"/>
  <variable name="x24_3" index="2513" value="1"/>
  <variable name="x25_33" index="2643" value="1"/>
  <variable name="x26_60" index="2770" value="1"/>
  <variable name="x27_56" index="2866" value="1"/>
  <variable name="x28_57" index="2967" value="1"/>
  <variable name="x29_74" index="3084" value="1"/>
  <variable name="x30_10" index="3120" value="1"/>
  <variable name="x31_53" index="3263" value="1"/>
  <variable name="x32_80" index="3390" value="1"/>
  <variable name="x33_20" index="3430" value="1"/>
  <variable name="x34_89" index="3599" value="1"/>
  <variable name="x35_26" index="3636" value="1"/>
  <variable name="x36_99" index="3809" value="1"/>
  <variable name="x37_59" index="3869" value="1"/>
  <variable name="x38_15" index="3925" value="1"/>
  <variable name="x39_1" index="4011" value="1"/>
  <variable name="x40_23" index="4133" value="1"/>
  <variable name="x41_37" index="4247" value="1"/>
  <variable name="x42_5" index="4315" value="1"/>
  <variable name="x43_14" index="4424" value="1"/>
  <variable name="x44_55" index="4565" value="1"/>
  <variable name="x45_18" index="4628" value="1"/>
  <variable name="x46_86" index="4796" value="1"/>
  <variable name="x47_81" index="4891" value="1"/>
  <variable name="x48_54" index="4964" value="1"/>
  <variable name="x49_88" index="5098" value="1"/>
  <variable name="x50_91" index="5201" value="1"/>
  <variable name="x51_64" index="5274" value="1"/>
  <variable name="x52_40" index="5350" value="1"/>
  <variable name="x53_67" index="5477" value="1"/>
  <variable name="x54_31" index="5541" value="1"/>
  <variable name="x55_93" index="5703" value="1"/>
  <variable name="x56_39" index="5749" value="1"/>
  <variable name="x57_76" index="5886" value="1"/>
  <variable name="x58_61" index="5971" value="1"/>
  <variable name="x59_28" index="6038" value="1"/>
  <variable name="x60_2" index="6112" value="1"/>
  <variable name="x61_30" index="6240" value="1"/>
  <variable name="x62_92" index="6402" value="1"/>
  <variable name="x63_32" index="6442" value="1"/>
  <variable name="x64_70" index="6580" value="1"/>
  <variable name="x65_25" index="6635" value="1"/>
  <variable name="x66_68" index="6778" value="1"/>
  <variable name="x67_41" index="6851" value="1"/>
  <variable name="x68_65" index="6975" value="1"/>
  <variable name="x69_27" index="7037" value="1"/>
  <variable name="x70_87" index="7197" value="1"/>
  <variable name="x71_63" index="7273" value="1"/>
  <variable name="x72_35" index="7345" value="1"/>
  <variable name="x73_83" index="7493" value="1"/>
  <variable name="x74_24" index="7534" value="1"/>
  <variable name="x75_95" index="7705" value="1"/>
  <variable name="x76_97" index="7807" value="1"/>
  <variable name="x77_13" index="7823" value="1"/>
  <variable name="x78_36" index="7946" value="1"/>
  <variable name="x79_49" index="8059" value="1"/>
  <variable name="x80_7" index="8117" value="1"/>
  <variable name="x81_12" index="8222" value="1"/>
  <variable name="x82_98" index="8408" value="1"/>
  <variable name="x83_11" index="8421" value="1"/>
  <variable name="x84_82" index="8592" value="1"/>
  <variable name="x85_47" index="8657" value="1"/>
  <variable name="x86_46" index="8756" value="1"/>
  <variable name="x87_58" index="8868" value="1"/>
  <variable name="x88_45" index="8955" value="1"/>
  <variable name="x89_69" index="9079" value="1"/>
  <variable name="x90_71" index="9181" value="1"/>
  <variable name="x91_8" index="9218" value="1"/>
  <variable name="x92_85" index="9395" value="1"/>
  <variable name="x93_66" index="9476" value="1"/>
  <variable name="x94_50" index="9560" value="1"/>
  <variable name="x95_62" index="9672" value="1"/>
  <variable name="x96_84" index="9794" value="1"/>
  <variable name="x97_9" index="9819" value="1"/>
  <variable name="x98_22" index="9932" value="1"/>
  <variable name="x99_44" index="10054" value="1"/>
  <variable name="u1" index="10111" value="1"/>
  <variable name="u9" index="10119" value="1"/>
 </variables>
</CPLEXSolution>
